(set-logic QF_S)
(declare-fun var_0xINPUT_82850 () String)
(assert (and (= (len var_0xINPUT_82850) 0) (= (len var_0xINPUT_82850) 0) (not (= var_0xINPUT_82850 "Example:")) (not (= var_0xINPUT_82850 "6JX7G3VKFq"))))
(check-sat var_0xINPUT_82850)